nNurses = 142;
nHours = 35;
minHours = 9;
maxHours = 14;
maxConsec = 9;
maxPresence = 32;
demand = [20, 24, 21, 17, 22, 24, 23, 28, 30, 27, 27, 26, 27, 22, 26, 31, 26, 28, 24, 28, 31, 27, 22, 19, 19, 21, 19, 14, 18, 13, 8, 12, 9, 10, 12];
